10J3M/DAT/10J3MNNR-15.dat
10 3
25.4699 13.6743
22.7946 11.545
28.149 9.6842
30.2446 47.1346
24.1755 4.0659
12.1356 32.002
21.511 26.3142
28.5782 41.0216
27.5819 23.3584
20.5282 16.3392
225.1394