10J3M/SOL/10J3MNNR-15.sol
solution status: optimal solution found
objective value:                              80.3895
x#1#1                                               1 	(obj:0)
x#2#2                                               1 	(obj:0)
x#3#3                                               1 	(obj:0)
x#4#3                                               1 	(obj:0)
x#5#1                                               1 	(obj:0)
x#6#1                                               1 	(obj:0)
x#7#2                                               1 	(obj:0)
x#8#2                               0.230325912758676 	(obj:0)
x#8#3                               0.769674087241324 	(obj:0)
x#9#1                               0.674663456832198 	(obj:0)
x#9#2                               0.325336543167802 	(obj:0)
x#10#2                                              1 	(obj:0)
z                                             80.3895 	(obj:1)
